\ Equation counts
\     Total        E        G        L        N        X        C        B
\       135       15       60       60        0        0        0        0
\ 
\ Variable counts
\                  x        b        i      s1s      s2s       sc       si
\     Total     cont   binary  integer     sos1     sos2    scont     sint
\       102       42       60        0        0        0        0        0
\ 
\ Nonzero counts
\     Total    const       NL      DLL
\       462      450       12        0
\ 
Minimize
 obj: - 1.2e3 x1 - 7.8e3 x2 - 3.36e3 x3 - 4.2e2 x4 - 6.6e3 x5 - 3.6e3 x6 - 3e3 x7 - 1.17e4 x8 - 4.32e3 x9 
  - 4.2e2 x10 - 5.61e3 x11 - 1.6e3 x12 + 0 b13 + 0 b14 + 0 b15 + 0 b16 + 0 b17 + 0 b18 + 0 b19 + 0 b20 
  + 0 b21 + 0 b22 + 0 b23 + 0 b24 + 0 b25 + 0 b26 + 0 b27 + 0 b28 + 0 b29 + 0 b30 + 0 b31 + 0 b32 + 0 b33 
  + 0 b34 + 0 b35 + 0 b36 + 0 b37 + 0 b38 + 0 b39 + 0 b40 + 0 b41 + 0 b42 + 0 b43 + 0 b44 + 0 b45 + 0 b46 
  + 0 b47 + 0 b48 + 0 b49 + 0 b50 + 0 b51 + 0 b52 + 0 b53 + 0 b54 + 0 b55 + 0 b56 + 0 b57 + 0 b58 + 0 b59 
  + 0 b60 + 0 b61 + 0 b62 + 0 b63 + 0 b64 + 0 b65 + 0 b66 + 0 b67 + 0 b68 + 0 b69 + 0 b70 + 0 b71 + 0 b72 
  + 300 x73 + 2.4e2 x74 + 2.1e2 x75 + 1.4e2 x76 + 300 x77 + 100 x78 + 1.5e2 x79 + 2.2e2 x80 + 200 x81 
  + 1.2e2 x82 + 300 x83 + 1.5e2 x84 + 100 x85 + 1.2e2 x86 + 1.3e2 x87 + 300 x88 + 2.4e2 x89 + 2.1e2 x90 
  + 1.4e2 x91 + 300 x92 + 100 x93 + 1.5e2 x94 + 2.2e2 x95 + 200 x96 + 1.2e2 x97 + 300 x98 + 1.5e2 x99 
  + 100 x100 + 1.2e2 x101 + 1.3e2 x102 + [ 300 x1^2 + 7.8e2 x2^2 + 4.8e2 x3^2 + 1.4e2 x4^2 + 3.3e2 x5^2 
  + 200 x6^2 + 300 x7^2 + 7.8e2 x8^2 + 4.8e2 x9^2 + 1.4e2 x10^2 + 3.3e2 x11^2 + 200 x12^2 ]/2 + objconstant
  

Subject To
 e2: - x1 + x2 + x73 >= 0
 e3: - x1 + x3 + x74 >= 0
 e4: - x1 + x4 + x75 >= 0
 e5: - x1 + x5 + x76 >= 0
 e6: - x1 + x6 + x77 >= 0
 e7: - x2 + x3 + x78 >= 0
 e8: - x2 + x4 + x79 >= 0
 e9: - x2 + x5 + x80 >= 0
 e10: - x2 + x6 + x81 >= 0
 e11: - x3 + x4 + x82 >= 0
 e12: - x3 + x5 + x83 >= 0
 e13: - x3 + x6 + x84 >= 0
 e14: - x4 + x5 + x85 >= 0
 e15: - x4 + x6 + x86 >= 0
 e16: - x5 + x6 + x87 >= 0
 e17: x1 - x2 + x73 >= 0
 e18: x1 - x3 + x74 >= 0
 e19: x1 - x4 + x75 >= 0
 e20: x1 - x5 + x76 >= 0
 e21: x1 - x6 + x77 >= 0
 e22: x2 - x3 + x78 >= 0
 e23: x2 - x4 + x79 >= 0
 e24: x2 - x5 + x80 >= 0
 e25: x2 - x6 + x81 >= 0
 e26: x3 - x4 + x82 >= 0
 e27: x3 - x5 + x83 >= 0
 e28: x3 - x6 + x84 >= 0
 e29: x4 - x5 + x85 >= 0
 e30: x4 - x6 + x86 >= 0
 e31: x5 - x6 + x87 >= 0
 e32: - x7 + x8 + x88 >= 0
 e33: - x7 + x9 + x89 >= 0
 e34: - x7 + x10 + x90 >= 0
 e35: - x7 + x11 + x91 >= 0
 e36: - x7 + x12 + x92 >= 0
 e37: - x8 + x9 + x93 >= 0
 e38: - x8 + x10 + x94 >= 0
 e39: - x8 + x11 + x95 >= 0
 e40: - x8 + x12 + x96 >= 0
 e41: - x9 + x10 + x97 >= 0
 e42: - x9 + x11 + x98 >= 0
 e43: - x9 + x12 + x99 >= 0
 e44: - x10 + x11 + x100 >= 0
 e45: - x10 + x12 + x101 >= 0
 e46: - x11 + x12 + x102 >= 0
 e47: x7 - x8 + x88 >= 0
 e48: x7 - x9 + x89 >= 0
 e49: x7 - x10 + x90 >= 0
 e50: x7 - x11 + x91 >= 0
 e51: x7 - x12 + x92 >= 0
 e52: x8 - x9 + x93 >= 0
 e53: x8 - x10 + x94 >= 0
 e54: x8 - x11 + x95 >= 0
 e55: x8 - x12 + x96 >= 0
 e56: x9 - x10 + x97 >= 0
 e57: x9 - x11 + x98 >= 0
 e58: x9 - x12 + x99 >= 0
 e59: x10 - x11 + x100 >= 0
 e60: x10 - x12 + x101 >= 0
 e61: x11 - x12 + x102 >= 0
 e62: x1 - x2 + 30 b13 <= 24
 e63: x1 - x3 + 30 b14 <= 26
 e64: x1 - x4 + 30 b15 <= 26.5
 e65: x1 - x5 + 30 b16 <= 25.5
 e66: x1 - x6 + 30 b17 <= 25
 e67: x2 - x3 + 30 b18 <= 25
 e68: x2 - x4 + 30 b19 <= 25.5
 e69: x2 - x5 + 30 b20 <= 24.5
 e70: x2 - x6 + 30 b21 <= 24
 e71: x3 - x4 + 30 b22 <= 27.5
 e72: x3 - x5 + 30 b23 <= 26.5
 e73: x3 - x6 + 30 b24 <= 26
 e74: x4 - x5 + 30 b25 <= 27
 e75: x4 - x6 + 30 b26 <= 26.5
 e76: x5 - x6 + 30 b27 <= 25.5
 e77: - x1 + x2 + 30 b28 <= 24
 e78: - x1 + x3 + 30 b29 <= 26
 e79: - x1 + x4 + 30 b30 <= 26.5
 e80: - x1 + x5 + 30 b31 <= 25.5
 e81: - x1 + x6 + 30 b32 <= 25
 e82: - x2 + x3 + 30 b33 <= 25
 e83: - x2 + x4 + 30 b34 <= 25.5
 e84: - x2 + x5 + 30 b35 <= 24.5
 e85: - x2 + x6 + 30 b36 <= 24
 e86: - x3 + x4 + 30 b37 <= 27.5
 e87: - x3 + x5 + 30 b38 <= 26.5
 e88: - x3 + x6 + 30 b39 <= 26
 e89: - x4 + x5 + 30 b40 <= 27
 e90: - x4 + x6 + 30 b41 <= 26.5
 e91: - x5 + x6 + 30 b42 <= 25.5
 e92: x7 - x8 + 30 b43 <= 24.5
 e93: x7 - x9 + 30 b44 <= 25.5
 e94: x7 - x10 + 30 b45 <= 25.5
 e95: x7 - x11 + 30 b46 <= 25
 e96: x7 - x12 + 30 b47 <= 26
 e97: x8 - x9 + 30 b48 <= 26
 e98: x8 - x10 + 30 b49 <= 26
 e99: x8 - x11 + 30 b50 <= 25.5
 e100: x8 - x12 + 30 b51 <= 26.5
 e101: x9 - x10 + 30 b52 <= 27
 e102: x9 - x11 + 30 b53 <= 26.5
 e103: x9 - x12 + 30 b54 <= 27.5
 e104: x10 - x11 + 30 b55 <= 26.5
 e105: x10 - x12 + 30 b56 <= 27.5
 e106: x11 - x12 + 30 b57 <= 27
 e107: - x7 + x8 + 30 b58 <= 24.5
 e108: - x7 + x9 + 30 b59 <= 25.5
 e109: - x7 + x10 + 30 b60 <= 25.5
 e110: - x7 + x11 + 30 b61 <= 25
 e111: - x7 + x12 + 30 b62 <= 26
 e112: - x8 + x9 + 30 b63 <= 26
 e113: - x8 + x10 + 30 b64 <= 26
 e114: - x8 + x11 + 30 b65 <= 25.5
 e115: - x8 + x12 + 30 b66 <= 26.5
 e116: - x9 + x10 + 30 b67 <= 27
 e117: - x9 + x11 + 30 b68 <= 26.5
 e118: - x9 + x12 + 30 b69 <= 27.5
 e119: - x10 + x11 + 30 b70 <= 26.5
 e120: - x10 + x12 + 30 b71 <= 27.5
 e121: - x11 + x12 + 30 b72 <= 27
 e122: b13 + b28 + b43 + b58 = 1
 e123: b14 + b29 + b44 + b59 = 1
 e124: b15 + b30 + b45 + b60 = 1
 e125: b16 + b31 + b46 + b61 = 1
 e126: b17 + b32 + b47 + b62 = 1
 e127: b18 + b33 + b48 + b63 = 1
 e128: b19 + b34 + b49 + b64 = 1
 e129: b20 + b35 + b50 + b65 = 1
 e130: b21 + b36 + b51 + b66 = 1
 e131: b22 + b37 + b52 + b67 = 1
 e132: b23 + b38 + b53 + b68 = 1
 e133: b24 + b39 + b54 + b69 = 1
 e134: b25 + b40 + b55 + b70 = 1
 e135: b26 + b41 + b56 + b71 = 1
 e136: b27 + b42 + b57 + b72 = 1

Bounds
 2.5 <= x1 <= 27.5
 3.5 <= x2 <= 26.5
 1.5 <= x3 <= 28.5
 1 <= x4 <= 29
 2 <= x5 <= 28
 2.5 <= x6 <= 27.5
 3 <= x7 <= 27
 2.5 <= x8 <= 27.5
 1.5 <= x9 <= 28.5
 1.5 <= x10 <= 28.5
 2 <= x11 <= 28
 1 <= x12 <= 29
 objconstant = 329095

Binary
 b13 b14 b15 b16 b17 b18 b19 b20 b21 b22 b23 b24 b25 b26 b27 b28 b29 b30 b31 b32 b33 b34 b35
 b36 b37 b38 b39 b40 b41 b42 b43 b44 b45 b46 b47 b48 b49 b50 b51 b52 b53 b54 b55 b56 b57 b58
 b59 b60 b61 b62 b63 b64 b65 b66 b67 b68 b69 b70 b71 b72

End
